\* Problem: Unknown *\

Maximize
 obj: + xp_0_0 + xp_0_1 + xp_0_2 + xp_0_3 + xp_0_4 + xp_0_5 + xp_0_6
 + xp_1_0 + xp_1_1 + xp_2_0 + xp_2_1 + xp_2_2 + xp_2_3 + xp_2_4 + xp_3_0
 + xp_3_1 + xp_3_2 + xp_4_0 + xp_5_0 + xp_5_1 + xp_5_2 + xp_6_0 + xp_6_1
 + xp_6_2 + xp_7_0 + xp_7_1 + xp_8_0 + xp_8_1 + xp_9_0 + xp_10_0
 + xp_10_1 + xp_11_0 + xp_11_1 + xp_11_2 + xp_11_3 + xp_11_4 + xp_12_0
 + xp_13_0 + xp_13_1 + xp_14_0 + xp_14_1 + xp_15_0 + xp_16_0 + xp_16_1
 + xp_17_0 + xp_17_1 + xp_17_2 + xp_17_3 + xp_17_4 + xp_17_5 + xp_17_6
 + xp_17_7 + xp_17_8 + xp_18_0 + xp_18_1 + xp_18_2 + xp_18_3 + xp_18_4
 + xp_19_0 + xp_19_1 + xp_19_2 + xp_19_3 + xp_19_4 + xp_20_0 + xp_20_1
 + xp_20_2 + xp_20_3 + xp_21_0 + xp_21_1 + xp_21_2 + xp_21_3 + xp_21_4
 + xp_22_0 + xp_22_1 + xp_22_2 + xp_22_3 + xp_22_4 + xp_22_5 + xp_23_0
 + xp_23_1 + xp_23_2 + xp_23_3 + xp_23_4 + xp_23_5

Subject To
 r_1: 0 xp_0_0 <= 25.9391100702576
 r_2: + xp_22_4 + xp_18_3 + xp_18_2 + xp_17_8 + xp_5_2 + xp_2_3
 <= 25.5951933909125
 r_3: + xp_23_5 + xp_21_1 + xp_18_4 + xp_17_4 + xp_6_2
 <= 26.3893805309735
 r_4: + xp_17_1 + xp_15_0 <= 26.5090230242688
 r_5: + xp_18_0 <= 25.3044253044253
 r_6: + xp_18_1 <= 26.0949464012251
 r_7: + xp_20_3 <= 25.9391100702576
 r_8: + xp_23_2 + xp_22_2 + xp_17_6 + xp_11_2 + xp_5_1 + xp_3_2 + xp_2_2
 <= 25.5951933909125
 r_9: + xp_23_4 + xp_11_1 + xp_3_1 <= 26.3893805309735
 r_10: + xp_17_3 + xp_11_4 + xp_3_0 <= 26.5090230242688
 r_11: + xp_18_1 + xp_11_3 <= 25.3044253044253
 r_12: + xp_11_0 <= 26.0949464012251
 r_13: 0 xp_0_0 <= 27.6367006487488
 r_14: + xp_21_2 + xp_14_0 + xp_0_6 + xp_0_2 <= 25.5951933909125
 r_15: + xp_21_0 + xp_19_3 <= 26.3893805309735
 r_16: + xp_23_3 + xp_22_1 + xp_21_4 + xp_19_4 + xp_0_4 + xp_0_3
 + xp_0_1 <= 26.2815479528884
 r_17: + xp_0_0 <= 25.3044253044253
 r_18: + xp_21_1 + xp_4_0 <= 25.9391100702576
 r_19: + xp_19_0 <= 25.9391100702576
 r_20: + xp_21_3 + xp_19_2 + xp_19_1 + xp_14_1 + xp_0_5
 <= 27.6367006487488
 r_21: + xp_20_1 <= 25.5951933909125
 r_22: + xp_21_2 + xp_7_1 <= 26.3893805309735
 r_23: + xp_23_2 + xp_22_4 + xp_22_3 + xp_22_2 + xp_17_7 + xp_17_6
 <= 26.2815479528884
 r_24: + xp_18_3 + xp_17_8 + xp_6_1 + xp_3_2 + xp_0_6
 <= 26.1838588989845
 r_25: 0 xp_0_0 <= 27.6367006487488
 r_26: + xp_18_2 + xp_0_5 + xp_0_2 <= 25.3044253044253
 r_27: + xp_11_2 <= 25.5951933909125
 r_28: + xp_19_2 + xp_10_1 <= 25.5951933909125
 r_29: + xp_20_2 <= 26.3893805309735
 r_30: + xp_2_0 <= 26.3893805309735
 r_31: + xp_23_5 + xp_23_4 + xp_18_4 + xp_17_4 + xp_6_2 + xp_3_1
 + xp_2_4 <= 26.1838588989845
 r_32: + xp_2_1 <= 27.6367006487488
 r_33: + xp_11_1 + xp_2_3 <= 26.3893805309735
 r_34: + xp_19_3 + xp_2_2 <= 26.3893805309735
 r_35: 0 xp_0_0 <= 26.2815479528884
 r_36: + xp_9_0 <= 26.2815479528884
 r_37: + xp_21_4 + xp_13_1 + xp_8_1 + xp_0_3 <= 26.1838588989845
 r_38: + xp_23_3 + xp_23_2 + xp_1_1 <= 27.941473259334
 r_39: + xp_19_4 + xp_17_7 + xp_17_6 + xp_17_2 + xp_0_4
 <= 26.5090230242688
 r_40: + xp_0_1 <= 25.3044253044253
 r_41: + xp_12_0 + xp_2_4 <= 26.1838588989845
 r_42: + xp_21_4 <= 26.1838588989845
 r_43: + xp_16_0 <= 26.1838588989845
 r_44: + xp_23_5 + xp_23_4 + xp_23_1 + xp_16_1 <= 27.941473259334
 r_45: + xp_17_8 + xp_17_4 + xp_3_2 + xp_3_1 <= 26.5090230242688
 r_46: + xp_18_4 + xp_18_3 + xp_0_6 + xp_0_3 <= 25.3044253044253
 r_47: + xp_22_5 + xp_16_1 + xp_13_1 <= 27.941473259334
 r_48: + xp_13_0 <= 27.941473259334
 r_49: + xp_17_5 <= 26.5090230242688
 r_50: 0 xp_0_0 <= 25.3044253044253
 r_51: + xp_8_1 + xp_1_1 <= 26.5090230242688
 r_52: + xp_8_0 <= 26.5090230242688
 r_53: + xp_1_0 <= 26.5090230242688
 r_54: + xp_0_4 <= 25.3044253044253
 r_55: + xp_11_4 <= 26.5090230242688
 r_56: + xp_19_4 <= 26.5090230242688
 r_57: + xp_23_3 + xp_22_1 <= 25.3044253044253
 r_58: + xp_22_3 + xp_17_7 + xp_6_1 + xp_5_0 <= 25.3044253044253
 r_59: + xp_22_0 + xp_17_2 <= 25.3044253044253
 r_60: + xp_23_1 + xp_6_0 <= 25.3044253044253
 r_61: + xp_23_0 + xp_22_5 + xp_17_5 <= 25.3044253044253
 r_62: + xp_17_0 <= 25.3044253044253
 r_63: + xp_23_5 + xp_22_4 + xp_17_8 + xp_17_4 + xp_17_1 + xp_11_3
 + xp_6_2 + xp_5_2 <= 25.3044253044253
 r_64: + xp_23_4 + xp_23_2 + xp_22_2 + xp_17_6 + xp_17_3 + xp_5_1
 <= 25.3044253044253
 r_65: + xp_20_1 + xp_19_2 + xp_14_1 + xp_10_1 + xp_7_1 + xp_2_1
 + xp_0_5 <= 27.6367006487488
 r_66: + xp_21_3 + xp_20_2 + xp_7_0 <= 27.6367006487488
 r_67: + xp_20_3 + xp_19_1 + xp_10_0 <= 27.6367006487488
 r_68: + xp_20_0 <= 27.6367006487488

Bounds
 0 <= xp_0_0 <= 27.2727272727273
 0 <= xp_0_1 <= 13.6363636363636
 0 <= xp_0_2 <= 5.45454545454545
 0 <= xp_0_3 <= 2.72727272727273
 0 <= xp_0_4 <= 5.45454545454545
 0 <= xp_0_5 <= 2.72727272727273
 0 <= xp_0_6 <= 2.72727272727273
 0 <= xp_1_0 <= 20.9213522727273
 0 <= xp_1_1 <= 13.1056227272727
 0 <= xp_2_0 <= 22.7869581818182
 0 <= xp_2_1 <= 3.05019818181818
 0 <= xp_2_2 <= 0.968776363636363
 0 <= xp_2_3 <= 6.10039636363636
 0 <= xp_2_4 <= 0.645850909090909
 0 <= xp_3_0 <= 21.8181818181818
 0 <= xp_3_1 <= 5.45454545454545
 0 <= xp_3_2 <= 2.72727272727273
 0 <= xp_4_0 <= 25.3224
 0 <= xp_5_0 <= 13.8122181818182
 0 <= xp_5_1 <= 9.20814545454545
 0 <= xp_5_2 <= 2.30203636363636
 0 <= xp_6_0 <= 14.5028290909091
 0 <= xp_6_1 <= 4.14366545454545
 0 <= xp_6_2 <= 4.14366545454545
 0 <= xp_7_0 <= 17.8695572727273
 0 <= xp_7_1 <= 3.97101272727273
 0 <= xp_8_0 <= 17.8407818181818
 0 <= xp_8_1 <= 1.78407818181818
 0 <= xp_9_0 <= 18.200475
 0 <= xp_10_0 <= 16.5458863636364
 0 <= xp_10_1 <= 1.65458863636364
 0 <= xp_11_0 <= 24.3280418181818
 0 <= xp_11_1 <= 15.2765727272727
 0 <= xp_11_2 <= 7.74699272727272
 0 <= xp_11_3 <= 7.52958
 0 <= xp_11_4 <= 2.72727272727273
 0 <= xp_12_0 <= 17.09262
 0 <= xp_13_0 <= 13.5964022727273
 0 <= xp_13_1 <= 3.02142272727273
 0 <= xp_14_0 <= 11.5101818181818
 0 <= xp_14_1 <= 4.31631818181818
 0 <= xp_15_0 <= 15.668235
 0 <= xp_16_0 <= 13.6683409090909
 0 <= xp_16_1 <= 1.36683409090909
 0 <= xp_17_0 <= 26.9082436363636
 0 <= xp_17_1 <= 2.54503090909091
 0 <= xp_17_2 <= 1.27251545454545
 0 <= xp_17_3 <= 1.27251545454545
 0 <= xp_17_4 <= 2.72727272727273
 0 <= xp_17_5 <= 2.72727272727273
 0 <= xp_17_6 <= 1.27251545454545
 0 <= xp_17_7 <= 3.99978818181818
 0 <= xp_17_8 <= 1.27251545454545
 0 <= xp_18_0 <= 20.7630872727273
 0 <= xp_18_1 <= 13.1088163636364
 0 <= xp_18_2 <= 6.02686090909091
 0 <= xp_18_3 <= 1.09986272727273
 0 <= xp_18_4 <= 1.09986272727273
 0 <= xp_19_0 <= 27.7155531818182
 0 <= xp_19_1 <= 4.22679818181818
 0 <= xp_19_2 <= 5.45454545454545
 0 <= xp_19_3 <= 3.17009863636363
 0 <= xp_19_4 <= 1.05669954545454
 0 <= xp_20_0 <= 28.2574881818182
 0 <= xp_20_1 <= 3.93904363636363
 0 <= xp_20_2 <= 5.68155545454545
 0 <= xp_20_3 <= 2.95428272727273
 0 <= xp_21_0 <= 25.9506613636364
 0 <= xp_21_1 <= 1.65299181818182
 0 <= xp_21_2 <= 7.10753727272727
 0 <= xp_21_3 <= 1.65299181818182
 0 <= xp_21_4 <= 2.72727272727273
 0 <= xp_22_0 <= 26.5933104545454
 0 <= xp_22_1 <= 1.36523727272727
 0 <= xp_22_2 <= 0.682618636363636
 0 <= xp_22_3 <= 3.40989136363636
 0 <= xp_22_4 <= 1.36523727272727
 0 <= xp_22_5 <= 4.09251
 0 <= xp_23_0 <= 21.8213836363636
 0 <= xp_23_1 <= 10.9122927272727
 0 <= xp_23_2 <= 0.682618636363636
 0 <= xp_23_3 <= 0.682618636363636
 0 <= xp_23_4 <= 2.72727272727273
 0 <= xp_23_5 <= 0.682618636363636

End
